Problem:    
Rows:       248
Columns:    89 (72 integer, 72 binary)
Non-zeros:  820
Status:     INTEGER OPTIMAL
Objective:  value = 308.799356 (MINimum)

   No.   Row name        Activity     Lower bound   Upper bound
------ ------------    ------------- ------------- -------------
     1 r.5                   308.799             0               
     2 r.6                  -1742.13      -1918.47               
     3 r.7                    2308.8             0               
     4 r.8                  -1931.07      -1962.75               
     5 r.9                    2308.8             0               
     6 r.10                 -1826.16      -1913.22               
     7 r.11                  308.799             0               
     8 r.12                  4.26936      -1961.75               
     9 r.13                  308.799             0               
    10 r.14                 -93.5374      -1843.44               
    11 r.15                   2308.8             0               
    12 r.16                 -1825.09      -1936.02               
    13 r.17                  308.799             0               
    14 r.18                 -93.5374      -1920.66               
    15 r.19                   2308.8             0               
    16 r.20                 -1894.07         -1963               
    17 r.21                   2308.8             0               
    18 r.22                 -1922.94      -1922.94               
    19 r.23                  308.799             0               
    20 r.24                   51.683      -1967.59               
    21 r.25                  308.799             0               
    22 r.26                  87.0588       -1819.4               
    23 r.27                   2308.8             0               
    24 r.28                 -1758.18      -1933.09               
    25 r.29                  308.799             0               
    26 r.30                 -93.5374      -1818.68               
    27 r.31                   2308.8             0               
    28 r.32                  -1691.2      -1933.02               
    29 r.33                   2308.8             0               
    30 r.34                    -1995       -1998.7               
    31 r.35                  308.799             0               
    32 r.36                        5      -1988.69               
    33 r.37                        1             1             = 
    34 r.38                        1             1             = 
    35 r.39                        1             1             = 
    36 r.40                        1             1             = 
    37 r.41                        1             1             = 
    38 r.42                        1             1             = 
    39 r.43                        1             1             = 
    40 r.44                        1             1             = 
    41 r.45                  1915.97       86.7772               
    42 r.46                 -1918.47      -1918.47               
    43 r.47                  1935.34       38.2525               
    44 r.48                 -1930.34      -1962.75               
    45 r.49                   1648.6       156.559               
    46 r.50                  -1648.6      -1918.47               
    47 r.51                  105.981       63.9834               
    48 r.52                 -105.981      -1962.75               
    49 r.53                   1648.6       79.3386               
    50 r.54                  -1648.6      -1918.47               
    51 r.55                  36.9971       36.9971               
    52 r.56                 -36.9971      -1962.75               
    53 r.57                  1824.19       77.0588               
    54 r.58                 -1829.19      -1918.47               
    55 r.59                  1972.75       32.4136               
    56 r.60                 -1962.75      -1962.75               
    57 r.61                  1829.19      -1786.66               
    58 r.62                  -16.046      -1867.61               
    59 r.63                  18.1254      -1786.66               
    60 r.64                 -1827.11      -1867.61               
    61 r.65                   1648.6        181.32               
    62 r.66                  -1648.6      -1918.47               
    63 r.67                  239.866       66.9786               
    64 r.68                 -239.866      -1962.75               
    65 r.69                 -1747.13      -1915.97               
    66 r.70                 -1936.07      -1957.75               
    67 r.71                 -1747.13      -1915.97               
    68 r.72                 -1936.07      -1957.75               
    69 r.73                  81.5308       81.5308               
    70 r.74                 -81.5308      -1913.22               
    71 r.75                  69.6641       37.2505               
    72 r.76                 -69.6641      -1961.75               
    73 r.77                  1730.13       156.559               
    74 r.78                 -1730.13      -1913.22               
    75 r.79                  175.645       63.9834               
    76 r.80                 -175.645      -1961.75               
    77 r.81                  1730.13       79.3386               
    78 r.82                 -1730.13      -1913.22               
    79 r.83                  106.661       36.9971               
    80 r.84                 -106.661      -1961.75               
    81 r.85                  1905.72       77.0588               
    82 r.86                 -1910.72      -1913.22               
    83 r.87                  42.4136       32.4136               
    84 r.88                 -32.4136      -1961.75               
    85 r.89                  1910.72       180.596               
    86 r.90                 -1910.72      -1913.22               
    87 r.91                  242.551       66.9068               
    88 r.92                 -242.551      -1961.75               
    89 r.93                 -269.873      -1785.94               
    90 r.94                 -1867.54      -1867.54               
    91 r.95                 -92.8068      -1785.94               
    92 r.96                 -1690.47      -1867.54               
    93 r.97                 -1828.66      -1910.72               
    94 r.98                 -5.73064      -1956.75               
    95 r.99                 -1828.66      -1910.72               
    96 r.100                -5.73064      -1956.75               
    97 r.101                 351.404       81.5308               
    98 r.102                -351.404      -1843.44               
    99 r.103                 1894.02       37.2505               
   100 r.104                -1894.02      -1936.02               
   101 r.105                 267.373       86.7772               
   102 r.106                -269.873      -1843.44               
   103 r.107                 1829.36       38.2525               
   104 r.108                -1824.36      -1936.02               
   105 r.109                       0      -1840.94               
   106 r.110                -1731.55      -1931.02               
   107 r.111                -199.468      -1840.94               
   108 r.112                -1931.02      -1931.02               
   109 r.113                 175.596       77.0588               
   110 r.114                -180.596      -1843.44               
   111 r.115                 1866.77       32.4136               
   112 r.116                -1856.77      -1936.02               
   113 r.117                 180.596       180.596               
   114 r.118                -180.596      -1843.44               
   115 r.119                 66.9068       66.9068               
   116 r.120                -66.9068      -1936.02               
   117 r.121                       0      -1785.94               
   118 r.122                -1597.66      -1867.54               
   119 r.123                -268.451      -1785.94               
   120 r.124                -1866.11      -1867.54               
   121 r.125                -98.5374      -1840.94               
   122 r.126                -1830.09      -1931.02               
   123 r.127                -98.5374      -1840.94               
   124 r.128                -1830.09      -1931.02               
   125 r.129                 351.404       81.5308               
   126 r.130                -351.404      -1920.66               
   127 r.131                    1963       37.2505               
   128 r.132                   -1963         -1963               
   129 r.133                 267.373       86.7772               
   130 r.134                -269.873      -1920.66               
   131 r.135                 1898.34       38.2525               
   132 r.136                -1893.34         -1963               
   133 r.137                       0      -1840.94               
   134 r.138                -1731.55      -1931.02               
   135 r.139                -199.468      -1840.94               
   136 r.140                -1931.02      -1931.02               
   137 r.141                 175.596       77.0588               
   138 r.142                -180.596      -1920.66               
   139 r.143                 1935.75       32.4136               
   140 r.144                -1925.75         -1963               
   141 r.145                 180.596       180.596               
   142 r.146                -180.596      -1920.66               
   143 r.147                  135.89       66.9068               
   144 r.148                 -135.89         -1963               
   145 r.149                       0      -1785.94               
   146 r.150                -1597.66      -1867.54               
   147 r.151                -199.468      -1785.94               
   148 r.152                -1797.13      -1867.54               
   149 r.153                -98.5374      -1905.06               
   150 r.154                -1899.07      -1931.81               
   151 r.155                -98.5374      -1905.06               
   152 r.156                -1899.07      -1931.81               
   153 r.157                 170.808       81.5308               
   154 r.158                -170.808      -1922.94               
   155 r.159                 37.2505       37.2505               
   156 r.160                -37.2505      -1967.59               
   157 r.161                 86.7772       86.7772               
   158 r.162                -89.2772      -1922.94               
   159 r.163                 1972.59       38.2525               
   160 r.164                -1967.59      -1967.59               
   161 r.165                  1819.4       156.559               
   162 r.166                 -1819.4      -1922.94               
   163 r.167                 143.231       63.9834               
   164 r.168                -143.231      -1967.59               
   165 r.169                  1819.4       79.3386               
   166 r.170                 -1819.4      -1922.94               
   167 r.171                 74.2476       36.9971               
   168 r.172                -74.2476      -1967.59               
   169 r.173                       0      -1786.66               
   170 r.174                -1845.24      -1867.61               
   171 r.175                 55.3758      -1786.66               
   172 r.176                -1789.86      -1867.61               
   173 r.177                -180.596      -1785.94               
   174 r.178                -1778.26      -1867.54               
   175 r.179                 -125.22      -1785.94               
   176 r.180                -1722.88      -1867.54               
   177 r.181                -1917.94      -1917.94               
   178 r.182                  26.683      -1957.59               
   179 r.183                -1917.94      -1917.94               
   180 r.184                  26.683      -1957.59               
   181 r.185                 1829.19      -1786.66               
   182 r.186                 -16.046      -1867.61               
   183 r.187                 18.1254      -1786.66               
   184 r.188                -1827.11      -1867.61               
   185 r.189                 86.7772       86.7772               
   186 r.190                -89.2772       -1819.4               
   187 r.191                 1762.45       38.2525               
   188 r.192                -1757.45      -1933.09               
   189 r.193                  1819.4       156.559               
   190 r.194                 -1819.4       -1819.4               
   191 r.195                 1933.09       63.9834               
   192 r.196                -1933.09      -1933.09               
   193 r.197                  1819.4       79.3386               
   194 r.198                 -1819.4       -1819.4               
   195 r.199                 1864.11       36.9971               
   196 r.200                -1864.11      -1933.09               
   197 r.201                       0      -1786.66               
   198 r.202                -1845.24      -1867.61               
   199 r.203                 55.3758      -1786.66               
   200 r.204                -1789.86      -1867.61               
   201 r.205                  1819.4        181.32               
   202 r.206                 -1819.4       -1819.4               
   203 r.207                 66.9786       66.9786               
   204 r.208                -66.9786      -1933.09               
   205 r.209                 351.404       81.5308               
   206 r.210                -351.404      -1818.68               
   207 r.211                 1760.13       37.2505               
   208 r.212                -1760.13      -1933.02               
   209 r.213                -269.873      -1785.94               
   210 r.214                -1867.54      -1867.54               
   211 r.215                -92.8068      -1785.94               
   212 r.216                -1690.47      -1867.54               
   213 r.217                       0      -1785.94               
   214 r.218                -1597.66      -1867.54               
   215 r.219                -268.451      -1785.94               
   216 r.220                -1866.11      -1867.54               
   217 r.221                       0      -1785.94               
   218 r.222                -1597.66      -1867.54               
   219 r.223                -199.468      -1785.94               
   220 r.224                -1797.13      -1867.54               
   221 r.225                -180.596      -1785.94               
   222 r.226                -1778.26      -1867.54               
   223 r.227                 -125.22      -1785.94               
   224 r.228                -1722.88      -1867.54               
   225 r.229                 180.596       180.596               
   226 r.230                -180.596      -1818.68               
   227 r.231                 1933.02       66.9068               
   228 r.232                -1933.02      -1933.02               
   229 r.233                -1747.13      -1915.97               
   230 r.234                -1936.07      -1957.75               
   231 r.235                -1747.13      -1915.97               
   232 r.236                -1936.07      -1957.75               
   233 r.237                -1828.66      -1910.72               
   234 r.238                -5.73064      -1956.75               
   235 r.239                -1828.66      -1910.72               
   236 r.240                -5.73064      -1956.75               
   237 r.241                -98.5374      -1840.94               
   238 r.242                -1830.09      -1931.02               
   239 r.243                -98.5374      -1840.94               
   240 r.244                -1830.09      -1931.02               
   241 r.245                -98.5374      -1905.06               
   242 r.246                -1899.07      -1931.81               
   243 r.247                -98.5374      -1905.06               
   244 r.248                -1899.07      -1931.81               
   245 r.249                -1917.94      -1917.94               
   246 r.250                  26.683      -1957.59               
   247 r.251                -1917.94      -1917.94               
   248 r.252                  26.683      -1957.59               

   No. Column name       Activity     Lower bound   Upper bound
------ ------------    ------------- ------------- -------------
     1 tt                    308.799             0               
     2 s_1_1        *              0             0             1 
     3 t_1_1                 2050.93             0               
     4 s_1_6        *              0             0             1 
     5 s_2_1        *              1             0             1 
     6 t_2_1                 239.866             0               
     7 s_2_6        *              1             0             1 
     8 s_1_2        *              1             0             1 
     9 t_1_2                 132.463             0               
    10 s_1_7        *              0             0             1 
    11 s_2_2        *              0             0             1 
    12 t_2_2                  309.53             0               
    13 s_2_7        *              1             0             1 
    14 s_1_3        *              0             0             1 
    15 t_1_3                 402.337             0               
    16 s_2_3        *              1             0             1 
    17 t_2_3                 133.885             0               
    18 s_1_4        *              0             0             1 
    19 t_1_4                 402.337             0               
    20 s_2_4        *              1             0             1 
    21 t_2_4                 202.869             0               
    22 s_1_5        *              1             0             1 
    23 t_1_5                 221.741             0               
    24 s_2_5        *              0             0             1 
    25 t_2_5                 277.116             0               
    26 t_1_6                 221.741             0               
    27 t_2_6                 66.9786             0               
    28 t_1_7                 402.337             0               
    29 t_2_7                       0             0               
    30 s_1_8        *              1             0             1 
    31 t_1_8                 303.799             0               
    32 s_2_8        *              0             0             1 
    33 t_2_8                 303.799             0               
    34 u_1_1_2      *              0             0             1 
    35 u_2_1_2      *              1             0             1 
    36 u_1_1_3      *              0             0             1 
    37 u_2_1_3      *              0             0             1 
    38 u_1_1_4      *              0             0             1 
    39 u_2_1_4      *              0             0             1 
    40 u_1_1_5      *              0             0             1 
    41 u_2_1_5      *              1             0             1 
    42 u_1_1_7      *              0             0             1 
    43 u_2_1_7      *              0             0             1 
    44 u_1_2_1      *              1             0             1 
    45 u_2_2_1      *              0             0             1 
    46 u_1_2_3      *              1             0             1 
    47 u_2_2_3      *              0             0             1 
    48 u_1_2_4      *              1             0             1 
    49 u_2_2_4      *              0             0             1 
    50 u_1_2_5      *              1             0             1 
    51 u_2_2_5      *              0             0             1 
    52 u_1_2_6      *              1             0             1 
    53 u_2_2_6      *              0             0             1 
    54 u_1_3_1      *              1             0             1 
    55 u_2_3_1      *              1             0             1 
    56 u_1_3_2      *              0             0             1 
    57 u_2_3_2      *              1             0             1 
    58 u_1_3_5      *              0             0             1 
    59 u_2_3_5      *              1             0             1 
    60 u_1_3_6      *              0             0             1 
    61 u_2_3_6      *              0             0             1 
    62 u_1_4_1      *              1             0             1 
    63 u_2_4_1      *              1             0             1 
    64 u_1_4_2      *              0             0             1 
    65 u_2_4_2      *              1             0             1 
    66 u_1_4_5      *              0             0             1 
    67 u_2_4_5      *              1             0             1 
    68 u_1_4_6      *              0             0             1 
    69 u_2_4_6      *              0             0             1 
    70 u_1_5_1      *              1             0             1 
    71 u_2_5_1      *              0             0             1 
    72 u_1_5_2      *              0             0             1 
    73 u_2_5_2      *              1             0             1 
    74 u_1_5_3      *              1             0             1 
    75 u_2_5_3      *              0             0             1 
    76 u_1_5_4      *              1             0             1 
    77 u_2_5_4      *              0             0             1 
    78 u_1_6_2      *              0             0             1 
    79 u_2_6_2      *              1             0             1 
    80 u_1_6_3      *              1             0             1 
    81 u_2_6_3      *              1             0             1 
    82 u_1_6_4      *              1             0             1 
    83 u_2_6_4      *              1             0             1 
    84 u_1_6_7      *              1             0             1 
    85 u_2_6_7      *              0             0             1 
    86 u_1_7_1      *              1             0             1 
    87 u_2_7_1      *              1             0             1 
    88 u_1_7_6      *              0             0             1 
    89 u_2_7_6      *              1             0             1 

Integer feasibility conditions:

KKT.PE: max.abs.err = 4.55e-13 on row 97
        max.rel.err = 1.02e-16 on row 161
        High quality

KKT.PB: max.abs.err = 1.07e-13 on row 51
        max.rel.err = 2.80e-15 on row 51
        High quality

End of output
